container_size = [52, 36, 15];
Box = B(1..8);
no_boxes = [34, 37, 23, 27, 25, 23, 14, 17];
box_size =
[|       Length: Width: Height: 
 | B(1):      4,     3,      2
 | B(2):      4,     2,      2
 | B(3):      3,     2,      1
 | B(4):      5,     4,      2
 | B(5):     15,     2,      2
 | B(6):      6,     4,      3
 | B(7):      9,     2,      2
 | B(8):      7,     3,      3
 |];
